Minimize
err1 + err2 + err3 + err4 + err5 + err6 + err7 + err8 + err9 + err10 + err11 + err12 + err13 + err14 + err15 + err16 + err17 + err18 + err19 + err20 + err21 + err22 + err23 + err24 + err25 + err26 + err27 + err28 + err29 + err30 + err31 + err32 + err33 + err34 + err35 + err36 + err37 + err38 + err39 + err40 + err41 + err42 + err43 + err44 + err45 + err46 + err47 + err48 + err49 + err50 + err51 + err52 + err53 + err54 + err55 + err56 + err57 + err58 + err59 + err60 + err61 + err62 + err63 + err64 + err65 + err66 + err67 + err68 + err69 + err70 + err71 + err72 + err73 + err74 + err75 + err76 + err77 + err78 + err79 + err80 + err81 + err82 + err83 + err84 + err85 + err86 + err87 + err88 + err89 + err90 + err91 + err92 + err93 + err94 + err95 + err96 + err97 + err98 + err99 + err100 + err101 + err102 + err103 + err104 + err105 + err106 + err107 + err108 + err109 + err110 + err111

Subject To
25.0 layer_2 + 5.0 layer_1 + layer_c + 16000000.0 particle_2 + 4000.0 particle_1 + particle_c + 20000.0 particle_layer  - err1 = 301.033
16.0 layer_2 + 4.0 layer_1 + layer_c + 16000000.0 particle_2 + 4000.0 particle_1 + particle_c + 16000.0 particle_layer  - err2 = 245.033
9.0 layer_2 + 3.0 layer_1 + layer_c + 16000000.0 particle_2 + 4000.0 particle_1 + particle_c + 12000.0 particle_layer  - err3 = 188.5
4.0 layer_2 + 2.0 layer_1 + layer_c + 16000000.0 particle_2 + 4000.0 particle_1 + particle_c + 8000.0 particle_layer  - err4 = 133.233
1.0 layer_2 + 1.0 layer_1 + layer_c + 16000000.0 particle_2 + 4000.0 particle_1 + particle_c + 4000.0 particle_layer  - err5 = 79.0
25.0 layer_2 + 5.0 layer_1 + layer_c + 15210000.0 particle_2 + 3900.0 particle_1 + particle_c + 19500.0 particle_layer  - err6 = 293.533
16.0 layer_2 + 4.0 layer_1 + layer_c + 15210000.0 particle_2 + 3900.0 particle_1 + particle_c + 15600.0 particle_layer  - err7 = 239.733
9.0 layer_2 + 3.0 layer_1 + layer_c + 15210000.0 particle_2 + 3900.0 particle_1 + particle_c + 11700.0 particle_layer  - err8 = 186.433
4.0 layer_2 + 2.0 layer_1 + layer_c + 15210000.0 particle_2 + 3900.0 particle_1 + particle_c + 7800.0 particle_layer  - err9 = 131.0
25.0 layer_2 + 5.0 layer_1 + layer_c + 14440000.0 particle_2 + 3800.0 particle_1 + particle_c + 19000.0 particle_layer  - err10 = 290.467
16.0 layer_2 + 4.0 layer_1 + layer_c + 14440000.0 particle_2 + 3800.0 particle_1 + particle_c + 15200.0 particle_layer  - err11 = 235.267
9.0 layer_2 + 3.0 layer_1 + layer_c + 14440000.0 particle_2 + 3800.0 particle_1 + particle_c + 11400.0 particle_layer  - err12 = 180.833
4.0 layer_2 + 2.0 layer_1 + layer_c + 14440000.0 particle_2 + 3800.0 particle_1 + particle_c + 7600.0 particle_layer  - err13 = 129.467
25.0 layer_2 + 5.0 layer_1 + layer_c + 13690000.0 particle_2 + 3700.0 particle_1 + particle_c + 18500.0 particle_layer  - err14 = 282.6
16.0 layer_2 + 4.0 layer_1 + layer_c + 13690000.0 particle_2 + 3700.0 particle_1 + particle_c + 14800.0 particle_layer  - err15 = 230.8
9.0 layer_2 + 3.0 layer_1 + layer_c + 13690000.0 particle_2 + 3700.0 particle_1 + particle_c + 11100.0 particle_layer  - err16 = 178.0
4.0 layer_2 + 2.0 layer_1 + layer_c + 13690000.0 particle_2 + 3700.0 particle_1 + particle_c + 7400.0 particle_layer  - err17 = 125.367
25.0 layer_2 + 5.0 layer_1 + layer_c + 12960000.0 particle_2 + 3600.0 particle_1 + particle_c + 18000.0 particle_layer  - err18 = 274.767
16.0 layer_2 + 4.0 layer_1 + layer_c + 12960000.0 particle_2 + 3600.0 particle_1 + particle_c + 14400.0 particle_layer  - err19 = 224.8
9.0 layer_2 + 3.0 layer_1 + layer_c + 12960000.0 particle_2 + 3600.0 particle_1 + particle_c + 10800.0 particle_layer  - err20 = 172.833
4.0 layer_2 + 2.0 layer_1 + layer_c + 12960000.0 particle_2 + 3600.0 particle_1 + particle_c + 7200.0 particle_layer  - err21 = 123.567
25.0 layer_2 + 5.0 layer_1 + layer_c + 12250000.0 particle_2 + 3500.0 particle_1 + particle_c + 17500.0 particle_layer  - err22 = 267.533
16.0 layer_2 + 4.0 layer_1 + layer_c + 12250000.0 particle_2 + 3500.0 particle_1 + particle_c + 14000.0 particle_layer  - err23 = 218.033
9.0 layer_2 + 3.0 layer_1 + layer_c + 12250000.0 particle_2 + 3500.0 particle_1 + particle_c + 10500.0 particle_layer  - err24 = 169.1
4.0 layer_2 + 2.0 layer_1 + layer_c + 12250000.0 particle_2 + 3500.0 particle_1 + particle_c + 7000.0 particle_layer  - err25 = 120.0
25.0 layer_2 + 5.0 layer_1 + layer_c + 11560000.0 particle_2 + 3400.0 particle_1 + particle_c + 17000.0 particle_layer  - err26 = 260.633
16.0 layer_2 + 4.0 layer_1 + layer_c + 11560000.0 particle_2 + 3400.0 particle_1 + particle_c + 13600.0 particle_layer  - err27 = 212.367
9.0 layer_2 + 3.0 layer_1 + layer_c + 11560000.0 particle_2 + 3400.0 particle_1 + particle_c + 10200.0 particle_layer  - err28 = 165.3
4.0 layer_2 + 2.0 layer_1 + layer_c + 11560000.0 particle_2 + 3400.0 particle_1 + particle_c + 6800.0 particle_layer  - err29 = 117.233
25.0 layer_2 + 5.0 layer_1 + layer_c + 10890000.0 particle_2 + 3300.0 particle_1 + particle_c + 16500.0 particle_layer  - err30 = 253.4
16.0 layer_2 + 4.0 layer_1 + layer_c + 10890000.0 particle_2 + 3300.0 particle_1 + particle_c + 13200.0 particle_layer  - err31 = 206.167
9.0 layer_2 + 3.0 layer_1 + layer_c + 10890000.0 particle_2 + 3300.0 particle_1 + particle_c + 9900.0 particle_layer  - err32 = 161.167
4.0 layer_2 + 2.0 layer_1 + layer_c + 10890000.0 particle_2 + 3300.0 particle_1 + particle_c + 6600.0 particle_layer  - err33 = 114.333
25.0 layer_2 + 5.0 layer_1 + layer_c + 10240000.0 particle_2 + 3200.0 particle_1 + particle_c + 16000.0 particle_layer  - err34 = 247.8
16.0 layer_2 + 4.0 layer_1 + layer_c + 10240000.0 particle_2 + 3200.0 particle_1 + particle_c + 12800.0 particle_layer  - err35 = 202.433
9.0 layer_2 + 3.0 layer_1 + layer_c + 10240000.0 particle_2 + 3200.0 particle_1 + particle_c + 9600.0 particle_layer  - err36 = 155.933
4.0 layer_2 + 2.0 layer_1 + layer_c + 10240000.0 particle_2 + 3200.0 particle_1 + particle_c + 6400.0 particle_layer  - err37 = 111.333
25.0 layer_2 + 5.0 layer_1 + layer_c + 9610000.0 particle_2 + 3100.0 particle_1 + particle_c + 15500.0 particle_layer  - err38 = 239.467
16.0 layer_2 + 4.0 layer_1 + layer_c + 9610000.0 particle_2 + 3100.0 particle_1 + particle_c + 12400.0 particle_layer  - err39 = 195.8
9.0 layer_2 + 3.0 layer_1 + layer_c + 9610000.0 particle_2 + 3100.0 particle_1 + particle_c + 9300.0 particle_layer  - err40 = 151.233
4.0 layer_2 + 2.0 layer_1 + layer_c + 9610000.0 particle_2 + 3100.0 particle_1 + particle_c + 6200.0 particle_layer  - err41 = 108.6
25.0 layer_2 + 5.0 layer_1 + layer_c + 9000000.0 particle_2 + 3000.0 particle_1 + particle_c + 15000.0 particle_layer  - err42 = 233.1
16.0 layer_2 + 4.0 layer_1 + layer_c + 9000000.0 particle_2 + 3000.0 particle_1 + particle_c + 12000.0 particle_layer  - err43 = 187.533
9.0 layer_2 + 3.0 layer_1 + layer_c + 9000000.0 particle_2 + 3000.0 particle_1 + particle_c + 9000.0 particle_layer  - err44 = 148.733
25.0 layer_2 + 5.0 layer_1 + layer_c + 8410000.0 particle_2 + 2900.0 particle_1 + particle_c + 14500.0 particle_layer  - err45 = 227.1
16.0 layer_2 + 4.0 layer_1 + layer_c + 8410000.0 particle_2 + 2900.0 particle_1 + particle_c + 11600.0 particle_layer  - err46 = 184.8
9.0 layer_2 + 3.0 layer_1 + layer_c + 8410000.0 particle_2 + 2900.0 particle_1 + particle_c + 8700.0 particle_layer  - err47 = 144.267
25.0 layer_2 + 5.0 layer_1 + layer_c + 7840000.0 particle_2 + 2800.0 particle_1 + particle_c + 14000.0 particle_layer  - err48 = 216.133
16.0 layer_2 + 4.0 layer_1 + layer_c + 7840000.0 particle_2 + 2800.0 particle_1 + particle_c + 11200.0 particle_layer  - err49 = 177.5
9.0 layer_2 + 3.0 layer_1 + layer_c + 7840000.0 particle_2 + 2800.0 particle_1 + particle_c + 8400.0 particle_layer  - err50 = 139.667
25.0 layer_2 + 5.0 layer_1 + layer_c + 7290000.0 particle_2 + 2700.0 particle_1 + particle_c + 13500.0 particle_layer  - err51 = 210.033
16.0 layer_2 + 4.0 layer_1 + layer_c + 7290000.0 particle_2 + 2700.0 particle_1 + particle_c + 10800.0 particle_layer  - err52 = 173.6
9.0 layer_2 + 3.0 layer_1 + layer_c + 7290000.0 particle_2 + 2700.0 particle_1 + particle_c + 8100.0 particle_layer  - err53 = 133.867
25.0 layer_2 + 5.0 layer_1 + layer_c + 6760000.0 particle_2 + 2600.0 particle_1 + particle_c + 13000.0 particle_layer  - err54 = 203.167
16.0 layer_2 + 4.0 layer_1 + layer_c + 6760000.0 particle_2 + 2600.0 particle_1 + particle_c + 10400.0 particle_layer  - err55 = 167.367
9.0 layer_2 + 3.0 layer_1 + layer_c + 6760000.0 particle_2 + 2600.0 particle_1 + particle_c + 7800.0 particle_layer  - err56 = 130.567
25.0 layer_2 + 5.0 layer_1 + layer_c + 6250000.0 particle_2 + 2500.0 particle_1 + particle_c + 12500.0 particle_layer  - err57 = 199.4
16.0 layer_2 + 4.0 layer_1 + layer_c + 6250000.0 particle_2 + 2500.0 particle_1 + particle_c + 10000.0 particle_layer  - err58 = 161.167
9.0 layer_2 + 3.0 layer_1 + layer_c + 6250000.0 particle_2 + 2500.0 particle_1 + particle_c + 7500.0 particle_layer  - err59 = 127.433
25.0 layer_2 + 5.0 layer_1 + layer_c + 5760000.0 particle_2 + 2400.0 particle_1 + particle_c + 12000.0 particle_layer  - err60 = 191.0
16.0 layer_2 + 4.0 layer_1 + layer_c + 5760000.0 particle_2 + 2400.0 particle_1 + particle_c + 9600.0 particle_layer  - err61 = 158.233
9.0 layer_2 + 3.0 layer_1 + layer_c + 5760000.0 particle_2 + 2400.0 particle_1 + particle_c + 7200.0 particle_layer  - err62 = 122.767
25.0 layer_2 + 5.0 layer_1 + layer_c + 5290000.0 particle_2 + 2300.0 particle_1 + particle_c + 11500.0 particle_layer  - err63 = 183.333
16.0 layer_2 + 4.0 layer_1 + layer_c + 5290000.0 particle_2 + 2300.0 particle_1 + particle_c + 9200.0 particle_layer  - err64 = 150.2
9.0 layer_2 + 3.0 layer_1 + layer_c + 5290000.0 particle_2 + 2300.0 particle_1 + particle_c + 6900.0 particle_layer  - err65 = 120.233
25.0 layer_2 + 5.0 layer_1 + layer_c + 4840000.0 particle_2 + 2200.0 particle_1 + particle_c + 11000.0 particle_layer  - err66 = 178.733
16.0 layer_2 + 4.0 layer_1 + layer_c + 4840000.0 particle_2 + 2200.0 particle_1 + particle_c + 8800.0 particle_layer  - err67 = 146.4
9.0 layer_2 + 3.0 layer_1 + layer_c + 4840000.0 particle_2 + 2200.0 particle_1 + particle_c + 6600.0 particle_layer  - err68 = 114.667
25.0 layer_2 + 5.0 layer_1 + layer_c + 4410000.0 particle_2 + 2100.0 particle_1 + particle_c + 10500.0 particle_layer  - err69 = 169.2
16.0 layer_2 + 4.0 layer_1 + layer_c + 4410000.0 particle_2 + 2100.0 particle_1 + particle_c + 8400.0 particle_layer  - err70 = 139.133
9.0 layer_2 + 3.0 layer_1 + layer_c + 4410000.0 particle_2 + 2100.0 particle_1 + particle_c + 6300.0 particle_layer  - err71 = 109.567
25.0 layer_2 + 5.0 layer_1 + layer_c + 4000000.0 particle_2 + 2000.0 particle_1 + particle_c + 10000.0 particle_layer  - err72 = 162.533
16.0 layer_2 + 4.0 layer_1 + layer_c + 4000000.0 particle_2 + 2000.0 particle_1 + particle_c + 8000.0 particle_layer  - err73 = 134.2
25.0 layer_2 + 5.0 layer_1 + layer_c + 3610000.0 particle_2 + 1900.0 particle_1 + particle_c + 9500.0 particle_layer  - err74 = 155.433
16.0 layer_2 + 4.0 layer_1 + layer_c + 3610000.0 particle_2 + 1900.0 particle_1 + particle_c + 7600.0 particle_layer  - err75 = 128.9
25.0 layer_2 + 5.0 layer_1 + layer_c + 3240000.0 particle_2 + 1800.0 particle_1 + particle_c + 9000.0 particle_layer  - err76 = 147.667
16.0 layer_2 + 4.0 layer_1 + layer_c + 3240000.0 particle_2 + 1800.0 particle_1 + particle_c + 7200.0 particle_layer  - err77 = 122.3
25.0 layer_2 + 5.0 layer_1 + layer_c + 2890000.0 particle_2 + 1700.0 particle_1 + particle_c + 8500.0 particle_layer  - err78 = 142.133
16.0 layer_2 + 4.0 layer_1 + layer_c + 2890000.0 particle_2 + 1700.0 particle_1 + particle_c + 6800.0 particle_layer  - err79 = 116.867
25.0 layer_2 + 5.0 layer_1 + layer_c + 2560000.0 particle_2 + 1600.0 particle_1 + particle_c + 8000.0 particle_layer  - err80 = 134.1
16.0 layer_2 + 4.0 layer_1 + layer_c + 2560000.0 particle_2 + 1600.0 particle_1 + particle_c + 6400.0 particle_layer  - err81 = 111.433
25.0 layer_2 + 5.0 layer_1 + layer_c + 2250000.0 particle_2 + 1500.0 particle_1 + particle_c + 7500.0 particle_layer  - err82 = 126.767
16.0 layer_2 + 4.0 layer_1 + layer_c + 2250000.0 particle_2 + 1500.0 particle_1 + particle_c + 6000.0 particle_layer  - err83 = 105.967
25.0 layer_2 + 5.0 layer_1 + layer_c + 1960000.0 particle_2 + 1400.0 particle_1 + particle_c + 7000.0 particle_layer  - err84 = 119.867
16.0 layer_2 + 4.0 layer_1 + layer_c + 1960000.0 particle_2 + 1400.0 particle_1 + particle_c + 5600.0 particle_layer  - err85 = 101.467
25.0 layer_2 + 5.0 layer_1 + layer_c + 1690000.0 particle_2 + 1300.0 particle_1 + particle_c + 6500.0 particle_layer  - err86 = 113.933
16.0 layer_2 + 4.0 layer_1 + layer_c + 1690000.0 particle_2 + 1300.0 particle_1 + particle_c + 5200.0 particle_layer  - err87 = 95.3
25.0 layer_2 + 5.0 layer_1 + layer_c + 1440000.0 particle_2 + 1200.0 particle_1 + particle_c + 6000.0 particle_layer  - err88 = 106.967
16.0 layer_2 + 4.0 layer_1 + layer_c + 1440000.0 particle_2 + 1200.0 particle_1 + particle_c + 4800.0 particle_layer  - err89 = 88.7
25.0 layer_2 + 5.0 layer_1 + layer_c + 1210000.0 particle_2 + 1100.0 particle_1 + particle_c + 5500.0 particle_layer  - err90 = 98.8333
16.0 layer_2 + 4.0 layer_1 + layer_c + 1210000.0 particle_2 + 1100.0 particle_1 + particle_c + 4400.0 particle_layer  - err91 = 83.5667
25.0 layer_2 + 5.0 layer_1 + layer_c + 1000000.0 particle_2 + 1000.0 particle_1 + particle_c + 5000.0 particle_layer  - err92 = 91.2
16.0 layer_2 + 4.0 layer_1 + layer_c + 1000000.0 particle_2 + 1000.0 particle_1 + particle_c + 4000.0 particle_layer  - err93 = 77.5333
25.0 layer_2 + 5.0 layer_1 + layer_c + 810000.0 particle_2 + 900.0 particle_1 + particle_c + 4500.0 particle_layer  - err94 = 84.5333
16.0 layer_2 + 4.0 layer_1 + layer_c + 810000.0 particle_2 + 900.0 particle_1 + particle_c + 3600.0 particle_layer  - err95 = 72.4
25.0 layer_2 + 5.0 layer_1 + layer_c + 640000.0 particle_2 + 800.0 particle_1 + particle_c + 4000.0 particle_layer  - err96 = 78.0333
16.0 layer_2 + 4.0 layer_1 + layer_c + 640000.0 particle_2 + 800.0 particle_1 + particle_c + 3200.0 particle_layer  - err97 = 66.3
25.0 layer_2 + 5.0 layer_1 + layer_c + 490000.0 particle_2 + 700.0 particle_1 + particle_c + 3500.0 particle_layer  - err98 = 70.2667
16.0 layer_2 + 4.0 layer_1 + layer_c + 490000.0 particle_2 + 700.0 particle_1 + particle_c + 2800.0 particle_layer  - err99 = 60.4
25.0 layer_2 + 5.0 layer_1 + layer_c + 360000.0 particle_2 + 600.0 particle_1 + particle_c + 3000.0 particle_layer  - err100 = 63.6
16.0 layer_2 + 4.0 layer_1 + layer_c + 360000.0 particle_2 + 600.0 particle_1 + particle_c + 2400.0 particle_layer  - err101 = 54.8333
25.0 layer_2 + 5.0 layer_1 + layer_c + 250000.0 particle_2 + 500.0 particle_1 + particle_c + 2500.0 particle_layer  - err102 = 56.9667
16.0 layer_2 + 4.0 layer_1 + layer_c + 250000.0 particle_2 + 500.0 particle_1 + particle_c + 2000.0 particle_layer  - err103 = 50.3667
25.0 layer_2 + 5.0 layer_1 + layer_c + 160000.0 particle_2 + 400.0 particle_1 + particle_c + 2000.0 particle_layer  - err104 = 50.5333
16.0 layer_2 + 4.0 layer_1 + layer_c + 160000.0 particle_2 + 400.0 particle_1 + particle_c + 1600.0 particle_layer  - err105 = 45.3
25.0 layer_2 + 5.0 layer_1 + layer_c + 90000.0 particle_2 + 300.0 particle_1 + particle_c + 1500.0 particle_layer  - err106 = 42.6333
16.0 layer_2 + 4.0 layer_1 + layer_c + 90000.0 particle_2 + 300.0 particle_1 + particle_c + 1200.0 particle_layer  - err107 = 38.2667
25.0 layer_2 + 5.0 layer_1 + layer_c + 40000.0 particle_2 + 200.0 particle_1 + particle_c + 1000.0 particle_layer  - err108 = 35.2333
16.0 layer_2 + 4.0 layer_1 + layer_c + 40000.0 particle_2 + 200.0 particle_1 + particle_c + 800.0 particle_layer  - err109 = 32.3333
25.0 layer_2 + 5.0 layer_1 + layer_c + 10000.0 particle_2 + 100.0 particle_1 + particle_c + 500.0 particle_layer  - err110 = 27.8667
16.0 layer_2 + 4.0 layer_1 + layer_c + 10000.0 particle_2 + 100.0 particle_1 + particle_c + 400.0 particle_layer  - err111 = 26.9
[ 1 particle_layer * particle_layer - 4 particle_2 * layer_2 ] <= 0 
